; benchmark generated from python API
(set-info :status unknown)
(declare-datatypes ((RealState 0)) (((RMk1 (rval1 Real)) (RMk2 (rval2 Real)))))
 (assert
 (forall ((|v9:0| Real) )(exists ((|v8:1_st| RealState) (val!230 Real) )(forall ((|v7:2| Real) )(exists ((|v6:3_st| RealState) (val!231 Real) )(forall ((|v5:4| Real) )(exists ((|v4:5_st| RealState) (val!232 Real) )(forall ((|v3:6| Real) )(exists ((|v2:7_st| RealState) (val!233 Real) )(forall ((|v1:8| Real) )(exists ((|v0:9_st| RealState) (val!234 Real) )(let ((?x193 (- 17.0)))
 (let ((?x1243 (+ (+ (* (- 7.0) (rval2 |v4:5_st|)) (* 13.0 (rval2 |v0:9_st|))) (* (- 10.0) (rval2 |v4:5_st|)))))
 (let ((?x756 (- 8.0)))
 (let ((?x1292 (+ (+ |v9:0| (* (- 11.0) (rval2 |v6:3_st|))) (* (- 12.0) (rval2 |v4:5_st|)))))
 (let ((?x23 (+ (+ (* (- 4.0) (rval2 |v0:9_st|)) (* (- 18.0) (rval2 |v8:1_st|))) (* (- 6.0) |v1:8|))))
 (let (($x110 (<= (+ (+ (* (- 2.0) |v7:2|) (* 2.0 (rval2 |v0:9_st|))) (* 14.0 |v5:4|)) 13.0)))
 (let ((?x1239 (- 12.0)))
 (let ((?x1384 (rval2 |v0:9_st|)))
 (let ((?x1376 (* 4.0 ?x1384)))
 (let (($x1142 (or (<= (+ (+ (* (- 11.0) ?x1384) (* 13.0 |v7:2|)) ?x1376) ?x1239) $x110)))
 (let (($x691 (<= (+ (+ (* (- 16.0) |v1:8|) (* ?x193 |v5:4|)) (* 5.0 ?x1384)) 7.0)))
 (let ((?x1154 (- 7.0)))
 (let ((?x787 (+ (+ (* (- 3.0) (rval2 |v8:1_st|)) (* 11.0 ?x1384)) (* (- 10.0) |v7:2|))))
 (let ((?x371 (+ (+ (* ?x1154 (rval2 |v6:3_st|)) (* 17.0 |v1:8|)) (* 4.0 (rval2 |v8:1_st|)))))
 (let ((?x34 (- 11.0)))
 (let (($x360 (<= (+ (+ (* 0.0 |v9:0|) (* 19.0 |v7:2|)) (* 13.0 (rval2 |v8:1_st|))) ?x34)))
 (let ((?x998 (+ (+ (* (- 20.0) (rval2 |v4:5_st|)) (* 7.0 |v5:4|)) (* (- 20.0) ?x1384))))
 (let ((?x104 (- 1.0)))
 (let (($x1167 (<= (+ (+ (* (- 19.0) |v7:2|) (* (- 20.0) |v1:8|)) (* 12.0 |v5:4|)) ?x104)))
 (let ((?x555 (- 9.0)))
 (let (($x735 (<= (+ (+ (* (- 3.0) |v3:6|) (* 14.0 |v1:8|)) (* (- 16.0) |v5:4|)) ?x555)))
 (let ((?x973 (- 5.0)))
 (let (($x1001 (<= (+ (+ (* (- 16.0) |v5:4|) (* ?x555 (rval2 |v8:1_st|))) (* 6.0 ?x1384)) ?x973)))
 (let (($x100 (or (or (or $x1001 $x735) (and $x1167 (<= ?x998 ?x193))) (or (and $x360 (<= ?x371 16.0)) (or (<= ?x787 ?x1154) $x691)))))
 (let (($x349 (and $x100 (or (or $x1142 (and (<= ?x23 6.0) (<= ?x1292 ?x756))) (<= ?x1243 ?x193)))))
 (let ((?x959 (- 19.0)))
 (let (($x86 (<= (+ (+ (* (- 4.0) |v1:8|) (* ?x973 |v9:0|)) (* 10.0 |v5:4|)) ?x959)))
 (let ((?x809 (rval2 |v8:1_st|)))
 (let ((?x938 (- 6.0)))
 (let ((?x73 (* ?x938 ?x809)))
 (let (($x1324 (and (<= (+ (+ (* ?x34 (rval2 |v6:3_st|)) (* (- 3.0) ?x1384)) ?x73) 0.0) $x86)))
 (let (($x646 (or (<= (+ (+ (* (- 2.0) |v5:4|) ?x73) (* ?x193 |v9:0|)) ?x193) (<= (+ (+ (* 20.0 |v1:8|) (* 2.0 |v9:0|)) (* 18.0 ?x809)) ?x555))))
 (let ((?x1018 (- 10.0)))
 (let (($x790 (<= (+ (+ (* 11.0 |v9:0|) (* (- 15.0) |v7:2|)) (* 7.0 |v9:0|)) ?x1018)))
 (let (($x1297 (<= (+ (+ (* (- 18.0) ?x1384) (* 18.0 (rval2 |v2:7_st|))) (* ?x193 |v1:8|)) 9.0)))
 (let ((?x1166 (+ (+ (* (- 3.0) |v1:8|) (* 18.0 (rval2 |v4:5_st|))) (* (- 14.0) |v7:2|))))
 (let (($x1034 (<= (+ (+ (* 19.0 |v5:4|) (* (- 13.0) |v9:0|)) (* 18.0 (rval2 |v4:5_st|))) 14.0)))
 (let ((?x269 (- 4.0)))
 (let (($x1358 (and (<= (+ (+ (* ?x34 |v9:0|) (* 7.0 ?x809)) (* 2.0 ?x809)) ?x1018) (<= (+ (+ (* ?x973 |v9:0|) (* 12.0 |v3:6|)) (* 0.0 ?x809)) ?x269))))
 (let ((?x490 (+ (+ (* ?x269 (rval2 |v4:5_st|)) (* (- 20.0) |v3:6|)) (* (- 18.0) (rval2 |v2:7_st|)))))
 (let ((?x841 (- 18.0)))
 (let (($x465 (<= (+ (+ (* 3.0 |v5:4|) (* 4.0 (rval2 |v6:3_st|))) (* ?x841 |v3:6|)) ?x841)))
 (let (($x1225 (<= (+ (+ (* ?x841 |v3:6|) (* (- 13.0) ?x1384)) (* 5.0 |v9:0|)) 9.0)))
 (let (($x961 (<= (+ (+ (* ?x959 ?x1384) (* ?x34 |v1:8|)) (* ?x104 (rval2 |v2:7_st|))) ?x973)))
 (let ((?x386 (- 15.0)))
 (let (($x996 (<= (+ (+ (* (- 20.0) (rval2 |v6:3_st|)) (* 13.0 |v5:4|)) (* ?x555 |v5:4|)) ?x386)))
 (let (($x1128 (and (and $x996 (and $x961 $x1225)) (or (and $x465 (<= ?x490 7.0)) $x1358))))
 (let (($x128 (and $x1128 (or (or (or $x1034 (<= ?x1166 3.0)) (or $x1297 $x790)) (and $x646 $x1324)))))
 (let (($x945 (not (= |v0:9_st| (RMk1 val!234)))))
 (let (($x729 (not (= |v2:7_st| (RMk1 val!233)))))
 (let (($x655 (not (= |v4:5_st| (RMk1 val!232)))))
 (let (($x501 (not (= |v6:3_st| (RMk1 val!231)))))
 (let (($x699 (not (= |v8:1_st| (RMk1 val!230)))))
 (and $x699 $x501 $x655 $x729 $x945 (or $x128 $x349))))))))))))))))))))))))))))))))))))))))))))))))))))))))
 )
 )
 )
 )
 )
 )
 )
 )
 )
 )
(check-sat)
